<instance format="XCSP3" type="QCOP+"> 
  <variables> 
    <var id="x"> 0 1 </var>
    <var id="i"> 0..9 </var>
    <var id="z"> 0..+infinity </var>
  </variables> 
  <constraints> 
    <intension id="res"> eq(mod(i,2),x) </intension> 
    <element id="goal">
      <list> 12 5 6 9 4 3 13 10 12 5 </list>
      <index> i </index> 
      <value> z </value>
    </element>
  </constraints>  
  <quantification>
    <exists>
      <vars> x </vars> 
      <minimize> s </minimize>
    </exists>
    <forall> 
      <vars> i </vars>
      <ctrs> res </ctrs>
      <aggregate id="s"> @sum@(z) </aggregate>
    </forall>
    <exists>
      <vars> z </vars> 
    </exists> 
  </quantification>
</instance> 
